c User generated cnf file
p cnf 7 38
7 4 -1 0 
-1 5 2 0 
7 7 -4 0 
6 -7 7 0 
6 -6 5 0 
5 3 -5 0 
-1 5 7 0 
1 4 -2 0 
2 -3 1 0 
6 -6 5 0 
7 6 -6 0 
5 4 -1 0 
-2 3 3 0 
-3 3 1 0 
6 -7 3 0 
7 6 -6 0 
5 1 -2 0 
4 3 -4 0 
-6 3 3 0 
-2 7 7 0 
3 3 -7 0 
5 -7 6 0 
-1 2 7 0 
4 -1 6 0 
-4 1 6 0 
-2 6 6 0 
4 -4 1 0 
-5 6 2 0 
4 6 -6 0 
3 4 -7 0 
-4 2 4 0 
3 -3 6 0 
4 -7 7 0 
-7 7 2 0 
-7 1 3 0 
-2 1 5 0 
4 6 -6 0 
7 2 -4 0 
